NAME : F-n15-k5
CAPACITY : 1123
NODE_COORD_SECTION
1   384   279
2   357   292
3   477   256
4   182   261
5   93   392
6   365   182
7   443   63
8   439   413
9   117   58
10   202   391
11   296   456
12   290   120
13   370   383
14   417   241
15   362   234
DEMAND_SECTION
1   0
2   47
3   95
4   48
5   36
6   100
7   89
8   83
9   51
10   48
11   74
12   24
13   92
14   8
15   42
DEPOT_SECTION
    1
    -1
EOF